
******************************************************************************
This program contains Ipopt, a library for large-scale nonlinear optimization.
 Ipopt is released as open source code under the Eclipse Public License (EPL).
         For more information visit http://projects.coin-or.org/Ipopt
******************************************************************************

This is Ipopt version 3.11, running with linear solver ma97.

Number of nonzeros in equality constraint Jacobian...:        0
Number of nonzeros in inequality constraint Jacobian.:        0
Number of nonzeros in Lagrangian Hessian.............:   775022

Total number of variables............................:    70007
                     variables with only lower bounds:        0
                variables with lower and upper bounds:    70007
                     variables with only upper bounds:        0
Total number of equality constraints.................:        0
Total number of inequality constraints...............:        0
        inequality constraints with only lower bounds:        0
   inequality constraints with lower and upper bounds:        0
        inequality constraints with only upper bounds:        0

iter    objective    inf_pr   inf_du lg(mu)  ||d||  lg(rg) alpha_du alpha_pr  ls
   0  4.5166979e+03 0.00e+00 2.02e-02   0.0 0.00e+00    -  0.00e+00 0.00e+00   0
   1  4.4055276e+03 0.00e+00 4.22e-04  -0.6 8.42e-01    -  9.78e-01 1.00e+00f  1
   2  1.5177489e+03 0.00e+00 2.41e-02  -0.4 4.07e+01    -  8.97e-01 1.00e+00f  1
   3  2.0037086e+02 0.00e+00 8.22e-03  -1.4 3.54e+01    -  9.58e-01 1.00e+00f  1
   4  3.1361538e+01 0.00e+00 4.75e-04  -2.2 1.51e+01    -  1.00e+00 1.00e+00f  1
